c Modular CNF with 2 modules
c Generated CNF instance
p cnf 20 320
8 7 9 0
8 7 -9 0
8 -7 9 0
-8 7 9 0
10 5 6 0
10 5 -6 0
10 -5 6 0
-10 5 6 0
9 3 8 0
9 3 -8 0
9 -3 8 0
-9 3 8 0
2 6 9 0
2 6 -9 0
2 -6 9 0
-2 6 9 0
4 1 9 0
4 1 -9 0
4 -1 9 0
-4 1 9 0
5 1 6 0
5 1 -6 0
5 -1 6 0
-5 1 6 0
8 2 5 0
8 2 -5 0
8 -2 5 0
-8 2 5 0
4 2 5 0
4 2 -5 0
4 -2 5 0
-4 2 5 0
2 8 4 0
2 8 -4 0
2 -8 4 0
-2 8 4 0
10 7 6 0
10 7 -6 0
10 -7 6 0
-10 7 6 0
9 1 5 0
9 1 -5 0
9 -1 5 0
-9 1 5 0
5 10 7 0
5 10 -7 0
5 -10 7 0
-5 10 7 0
10 8 9 0
10 8 -9 0
10 -8 9 0
-10 8 9 0
8 6 5 0
8 6 -5 0
8 -6 5 0
-8 6 5 0
10 2 1 0
10 2 -1 0
10 -2 1 0
-10 2 1 0
6 7 5 0
6 7 -5 0
6 -7 5 0
-6 7 5 0
9 6 4 0
9 6 -4 0
9 -6 4 0
-9 6 4 0
10 8 3 0
10 8 -3 0
10 -8 3 0
-10 8 3 0
1 9 10 0
1 9 -10 0
1 -9 10 0
-1 9 10 0
8 1 9 0
8 1 -9 0
8 -1 9 0
-8 1 9 0
4 3 8 0
4 3 -8 0
4 -3 8 0
-4 3 8 0
2 4 8 0
2 4 -8 0
2 -4 8 0
-2 4 8 0
8 4 6 0
8 4 -6 0
8 -4 6 0
-8 4 6 0
3 4 10 0
3 4 -10 0
3 -4 10 0
-3 4 10 0
5 7 8 0
5 7 -8 0
5 -7 8 0
-5 7 8 0
6 8 1 0
6 8 -1 0
6 -8 1 0
-6 8 1 0
7 10 4 0
7 10 -4 0
7 -10 4 0
-7 10 4 0
2 8 6 0
2 8 -6 0
2 -8 6 0
-2 8 6 0
6 4 9 0
6 4 -9 0
6 -4 9 0
-6 4 9 0
7 4 10 0
7 4 -10 0
7 -4 10 0
-7 4 10 0
4 6 1 0
4 6 -1 0
4 -6 1 0
-4 6 1 0
10 7 5 0
10 7 -5 0
10 -7 5 0
-10 7 5 0
2 6 1 0
2 6 -1 0
2 -6 1 0
-2 6 1 0
1 2 3 0
1 2 -3 0
1 -2 3 0
-1 2 3 0
8 7 1 0
8 7 -1 0
8 -7 1 0
-8 7 1 0
4 8 6 0
4 8 -6 0
4 -8 6 0
-4 8 6 0
7 6 8 0
7 6 -8 0
7 -6 8 0
-7 6 8 0
3 5 10 0
3 5 -10 0
3 -5 10 0
-3 5 10 0
2 9 3 0
2 9 -3 0
2 -9 3 0
-2 9 3 0
3 2 6 0
3 2 -6 0
3 -2 6 0
-3 2 6 0
15 12 11 0
15 12 -11 0
15 -12 11 0
-15 12 11 0
15 18 14 0
15 18 -14 0
15 -18 14 0
-15 18 14 0
12 13 15 0
12 13 -15 0
12 -13 15 0
-12 13 15 0
18 17 16 0
18 17 -16 0
18 -17 16 0
-18 17 16 0
17 14 20 0
17 14 -20 0
17 -14 20 0
-17 14 20 0
17 19 16 0
17 19 -16 0
17 -19 16 0
-17 19 16 0
12 14 19 0
12 14 -19 0
12 -14 19 0
-12 14 19 0
17 15 11 0
17 15 -11 0
17 -15 11 0
-17 15 11 0
19 11 17 0
19 11 -17 0
19 -11 17 0
-19 11 17 0
12 17 11 0
12 17 -11 0
12 -17 11 0
-12 17 11 0
16 18 20 0
16 18 -20 0
16 -18 20 0
-16 18 20 0
18 16 15 0
18 16 -15 0
18 -16 15 0
-18 16 15 0
12 15 20 0
12 15 -20 0
12 -15 20 0
-12 15 20 0
12 18 20 0
12 18 -20 0
12 -18 20 0
-12 18 20 0
20 17 16 0
20 17 -16 0
20 -17 16 0
-20 17 16 0
20 13 16 0
20 13 -16 0
20 -13 16 0
-20 13 16 0
20 15 17 0
20 15 -17 0
20 -15 17 0
-20 15 17 0
19 14 13 0
19 14 -13 0
19 -14 13 0
-19 14 13 0
17 13 16 0
17 13 -16 0
17 -13 16 0
-17 13 16 0
18 20 16 0
18 20 -16 0
18 -20 16 0
-18 20 16 0
14 11 17 0
14 11 -17 0
14 -11 17 0
-14 11 17 0
17 16 13 0
17 16 -13 0
17 -16 13 0
-17 16 13 0
12 18 14 0
12 18 -14 0
12 -18 14 0
-12 18 14 0
17 19 18 0
17 19 -18 0
17 -19 18 0
-17 19 18 0
17 19 13 0
17 19 -13 0
17 -19 13 0
-17 19 13 0
14 20 11 0
14 20 -11 0
14 -20 11 0
-14 20 11 0
19 13 16 0
19 13 -16 0
19 -13 16 0
-19 13 16 0
18 17 19 0
18 17 -19 0
18 -17 19 0
-18 17 19 0
16 14 11 0
16 14 -11 0
16 -14 11 0
-16 14 11 0
15 14 17 0
15 14 -17 0
15 -14 17 0
-15 14 17 0
18 12 19 0
18 12 -19 0
18 -12 19 0
-18 12 19 0
12 13 14 0
12 13 -14 0
12 -13 14 0
-12 13 14 0
19 11 20 0
19 11 -20 0
19 -11 20 0
-19 11 20 0
13 19 14 0
13 19 -14 0
13 -19 14 0
-13 19 14 0
15 17 18 0
15 17 -18 0
15 -17 18 0
-15 17 18 0
14 16 18 0
14 16 -18 0
14 -16 18 0
-14 16 18 0
11 20 12 0
11 20 -12 0
11 -20 12 0
-11 20 12 0
13 14 11 0
13 14 -11 0
13 -14 11 0
-13 14 11 0
17 12 11 0
17 12 -11 0
17 -12 11 0
-17 12 11 0
19 11 13 0
19 11 -13 0
19 -11 13 0
-19 11 13 0
